Minimize
 obj: 0 X_0_1
Subject To
 out_0:
  + 1 X_0_1 + 1 X_0_2 + 1 X_0_3 + 1 X_0_4 + 1 X_0_5 + 1 X_0_6 + 1 X_0_7 + 1 X_0_8
  + 1 X_0_9 + 1 X_0_10 + 1 X_0_11 + 1 X_0_12 + 1 X_0_13 + 1 X_0_14
  = 1
 in_0:
  + 1 X_1_0 + 1 X_2_0 + 1 X_3_0 + 1 X_4_0 + 1 X_5_0 + 1 X_6_0 + 1 X_7_0 + 1 X_8_0
  + 1 X_9_0 + 1 X_10_0 + 1 X_11_0 + 1 X_12_0 + 1 X_13_0 + 1 X_14_0
  = 1
 out_1:
  + 1 X_1_0 + 1 X_1_2 + 1 X_1_3 + 1 X_1_4 + 1 X_1_5 + 1 X_1_6 + 1 X_1_7 + 1 X_1_8
  + 1 X_1_9 + 1 X_1_10 + 1 X_1_11 + 1 X_1_12 + 1 X_1_13 + 1 X_1_14
  = 1
 in_1:
  + 1 X_0_1 + 1 X_2_1 + 1 X_3_1 + 1 X_4_1 + 1 X_5_1 + 1 X_6_1 + 1 X_7_1 + 1 X_8_1
  + 1 X_9_1 + 1 X_10_1 + 1 X_11_1 + 1 X_12_1 + 1 X_13_1 + 1 X_14_1
  = 1
 out_2:
  + 1 X_2_0 + 1 X_2_1 + 1 X_2_3 + 1 X_2_4 + 1 X_2_5 + 1 X_2_6 + 1 X_2_7 + 1 X_2_8
  + 1 X_2_9 + 1 X_2_10 + 1 X_2_11 + 1 X_2_12 + 1 X_2_13 + 1 X_2_14
  = 1
 in_2:
  + 1 X_0_2 + 1 X_1_2 + 1 X_3_2 + 1 X_4_2 + 1 X_5_2 + 1 X_6_2 + 1 X_7_2 + 1 X_8_2
  + 1 X_9_2 + 1 X_10_2 + 1 X_11_2 + 1 X_12_2 + 1 X_13_2 + 1 X_14_2
  = 1
 out_3:
  + 1 X_3_0 + 1 X_3_1 + 1 X_3_2 + 1 X_3_4 + 1 X_3_5 + 1 X_3_6 + 1 X_3_7 + 1 X_3_8
  + 1 X_3_9 + 1 X_3_10 + 1 X_3_11 + 1 X_3_12 + 1 X_3_13 + 1 X_3_14
  = 1
 in_3:
  + 1 X_0_3 + 1 X_1_3 + 1 X_2_3 + 1 X_4_3 + 1 X_5_3 + 1 X_6_3 + 1 X_7_3 + 1 X_8_3
  + 1 X_9_3 + 1 X_10_3 + 1 X_11_3 + 1 X_12_3 + 1 X_13_3 + 1 X_14_3
  = 1
 out_4:
  + 1 X_4_0 + 1 X_4_1 + 1 X_4_2 + 1 X_4_3 + 1 X_4_5 + 1 X_4_6 + 1 X_4_7 + 1 X_4_8
  + 1 X_4_9 + 1 X_4_10 + 1 X_4_11 + 1 X_4_12 + 1 X_4_13 + 1 X_4_14
  = 1
 in_4:
  + 1 X_0_4 + 1 X_1_4 + 1 X_2_4 + 1 X_3_4 + 1 X_5_4 + 1 X_6_4 + 1 X_7_4 + 1 X_8_4
  + 1 X_9_4 + 1 X_10_4 + 1 X_11_4 + 1 X_12_4 + 1 X_13_4 + 1 X_14_4
  = 1
 out_5:
  + 1 X_5_0 + 1 X_5_1 + 1 X_5_2 + 1 X_5_3 + 1 X_5_4 + 1 X_5_6 + 1 X_5_7 + 1 X_5_8
  + 1 X_5_9 + 1 X_5_10 + 1 X_5_11 + 1 X_5_12 + 1 X_5_13 + 1 X_5_14
  = 1
 in_5:
  + 1 X_0_5 + 1 X_1_5 + 1 X_2_5 + 1 X_3_5 + 1 X_4_5 + 1 X_6_5 + 1 X_7_5 + 1 X_8_5
  + 1 X_9_5 + 1 X_10_5 + 1 X_11_5 + 1 X_12_5 + 1 X_13_5 + 1 X_14_5
  = 1
 out_6:
  + 1 X_6_0 + 1 X_6_1 + 1 X_6_2 + 1 X_6_3 + 1 X_6_4 + 1 X_6_5 + 1 X_6_7 + 1 X_6_8
  + 1 X_6_9 + 1 X_6_10 + 1 X_6_11 + 1 X_6_12 + 1 X_6_13 + 1 X_6_14
  = 1
 in_6:
  + 1 X_0_6 + 1 X_1_6 + 1 X_2_6 + 1 X_3_6 + 1 X_4_6 + 1 X_5_6 + 1 X_7_6 + 1 X_8_6
  + 1 X_9_6 + 1 X_10_6 + 1 X_11_6 + 1 X_12_6 + 1 X_13_6 + 1 X_14_6
  = 1
 out_7:
  + 1 X_7_0 + 1 X_7_1 + 1 X_7_2 + 1 X_7_3 + 1 X_7_4 + 1 X_7_5 + 1 X_7_6 + 1 X_7_8
  + 1 X_7_9 + 1 X_7_10 + 1 X_7_11 + 1 X_7_12 + 1 X_7_13 + 1 X_7_14
  = 1
 in_7:
  + 1 X_0_7 + 1 X_1_7 + 1 X_2_7 + 1 X_3_7 + 1 X_4_7 + 1 X_5_7 + 1 X_6_7 + 1 X_8_7
  + 1 X_9_7 + 1 X_10_7 + 1 X_11_7 + 1 X_12_7 + 1 X_13_7 + 1 X_14_7
  = 1
 out_8:
  + 1 X_8_0 + 1 X_8_1 + 1 X_8_2 + 1 X_8_3 + 1 X_8_4 + 1 X_8_5 + 1 X_8_6 + 1 X_8_7
  + 1 X_8_9 + 1 X_8_10 + 1 X_8_11 + 1 X_8_12 + 1 X_8_13 + 1 X_8_14
  = 1
 in_8:
  + 1 X_0_8 + 1 X_1_8 + 1 X_2_8 + 1 X_3_8 + 1 X_4_8 + 1 X_5_8 + 1 X_6_8 + 1 X_7_8
  + 1 X_9_8 + 1 X_10_8 + 1 X_11_8 + 1 X_12_8 + 1 X_13_8 + 1 X_14_8
  = 1
 out_9:
  + 1 X_9_0 + 1 X_9_1 + 1 X_9_2 + 1 X_9_3 + 1 X_9_4 + 1 X_9_5 + 1 X_9_6 + 1 X_9_7
  + 1 X_9_8 + 1 X_9_10 + 1 X_9_11 + 1 X_9_12 + 1 X_9_13 + 1 X_9_14
  = 1
 in_9:
  + 1 X_0_9 + 1 X_1_9 + 1 X_2_9 + 1 X_3_9 + 1 X_4_9 + 1 X_5_9 + 1 X_6_9 + 1 X_7_9
  + 1 X_8_9 + 1 X_10_9 + 1 X_11_9 + 1 X_12_9 + 1 X_13_9 + 1 X_14_9
  = 1
 out_10:
  + 1 X_10_0 + 1 X_10_1 + 1 X_10_2 + 1 X_10_3 + 1 X_10_4 + 1 X_10_5 + 1 X_10_6 + 1 X_10_7
  + 1 X_10_8 + 1 X_10_9 + 1 X_10_11 + 1 X_10_12 + 1 X_10_13 + 1 X_10_14
  = 1
 in_10:
  + 1 X_0_10 + 1 X_1_10 + 1 X_2_10 + 1 X_3_10 + 1 X_4_10 + 1 X_5_10 + 1 X_6_10 + 1 X_7_10
  + 1 X_8_10 + 1 X_9_10 + 1 X_11_10 + 1 X_12_10 + 1 X_13_10 + 1 X_14_10
  = 1
 out_11:
  + 1 X_11_0 + 1 X_11_1 + 1 X_11_2 + 1 X_11_3 + 1 X_11_4 + 1 X_11_5 + 1 X_11_6 + 1 X_11_7
  + 1 X_11_8 + 1 X_11_9 + 1 X_11_10 + 1 X_11_12 + 1 X_11_13 + 1 X_11_14
  = 1
 in_11:
  + 1 X_0_11 + 1 X_1_11 + 1 X_2_11 + 1 X_3_11 + 1 X_4_11 + 1 X_5_11 + 1 X_6_11 + 1 X_7_11
  + 1 X_8_11 + 1 X_9_11 + 1 X_10_11 + 1 X_12_11 + 1 X_13_11 + 1 X_14_11
  = 1
 out_12:
  + 1 X_12_0 + 1 X_12_1 + 1 X_12_2 + 1 X_12_3 + 1 X_12_4 + 1 X_12_5 + 1 X_12_6 + 1 X_12_7
  + 1 X_12_8 + 1 X_12_9 + 1 X_12_10 + 1 X_12_11 + 1 X_12_13 + 1 X_12_14
  = 1
 in_12:
  + 1 X_0_12 + 1 X_1_12 + 1 X_2_12 + 1 X_3_12 + 1 X_4_12 + 1 X_5_12 + 1 X_6_12 + 1 X_7_12
  + 1 X_8_12 + 1 X_9_12 + 1 X_10_12 + 1 X_11_12 + 1 X_13_12 + 1 X_14_12
  = 1
 out_13:
  + 1 X_13_0 + 1 X_13_1 + 1 X_13_2 + 1 X_13_3 + 1 X_13_4 + 1 X_13_5 + 1 X_13_6 + 1 X_13_7
  + 1 X_13_8 + 1 X_13_9 + 1 X_13_10 + 1 X_13_11 + 1 X_13_12 + 1 X_13_14
  = 1
 in_13:
  + 1 X_0_13 + 1 X_1_13 + 1 X_2_13 + 1 X_3_13 + 1 X_4_13 + 1 X_5_13 + 1 X_6_13 + 1 X_7_13
  + 1 X_8_13 + 1 X_9_13 + 1 X_10_13 + 1 X_11_13 + 1 X_12_13 + 1 X_14_13
  = 1
 out_14:
  + 1 X_14_0 + 1 X_14_1 + 1 X_14_2 + 1 X_14_3 + 1 X_14_4 + 1 X_14_5 + 1 X_14_6 + 1 X_14_7
  + 1 X_14_8 + 1 X_14_9 + 1 X_14_10 + 1 X_14_11 + 1 X_14_12 + 1 X_14_13
  = 1
 in_14:
  + 1 X_0_14 + 1 X_1_14 + 1 X_2_14 + 1 X_3_14 + 1 X_4_14 + 1 X_5_14 + 1 X_6_14 + 1 X_7_14
  + 1 X_8_14 + 1 X_9_14 + 1 X_10_14 + 1 X_11_14 + 1 X_12_14 + 1 X_13_14
  = 1
 mtz_1_2:
  + 1 U1 - 1 U2 + 14 X_1_2
  <= 13
 mtz_1_3:
  + 1 U1 - 1 U3 + 14 X_1_3
  <= 13
 mtz_1_4:
  + 1 U1 - 1 U4 + 14 X_1_4
  <= 13
 mtz_1_5:
  + 1 U1 - 1 U5 + 14 X_1_5
  <= 13
 mtz_1_6:
  + 1 U1 - 1 U6 + 14 X_1_6
  <= 13
 mtz_1_7:
  + 1 U1 - 1 U7 + 14 X_1_7
  <= 13
 mtz_1_8:
  + 1 U1 - 1 U8 + 14 X_1_8
  <= 13
 mtz_1_9:
  + 1 U1 - 1 U9 + 14 X_1_9
  <= 13
 mtz_1_10:
  + 1 U1 - 1 U10 + 14 X_1_10
  <= 13
 mtz_1_11:
  + 1 U1 - 1 U11 + 14 X_1_11
  <= 13
 mtz_1_12:
  + 1 U1 - 1 U12 + 14 X_1_12
  <= 13
 mtz_1_13:
  + 1 U1 - 1 U13 + 14 X_1_13
  <= 13
 mtz_1_14:
  + 1 U1 - 1 U14 + 14 X_1_14
  <= 13
 mtz_2_1:
  + 1 U2 - 1 U1 + 14 X_2_1
  <= 13
 mtz_2_3:
  + 1 U2 - 1 U3 + 14 X_2_3
  <= 13
 mtz_2_4:
  + 1 U2 - 1 U4 + 14 X_2_4
  <= 13
 mtz_2_5:
  + 1 U2 - 1 U5 + 14 X_2_5
  <= 13
 mtz_2_6:
  + 1 U2 - 1 U6 + 14 X_2_6
  <= 13
 mtz_2_7:
  + 1 U2 - 1 U7 + 14 X_2_7
  <= 13
 mtz_2_8:
  + 1 U2 - 1 U8 + 14 X_2_8
  <= 13
 mtz_2_9:
  + 1 U2 - 1 U9 + 14 X_2_9
  <= 13
 mtz_2_10:
  + 1 U2 - 1 U10 + 14 X_2_10
  <= 13
 mtz_2_11:
  + 1 U2 - 1 U11 + 14 X_2_11
  <= 13
 mtz_2_12:
  + 1 U2 - 1 U12 + 14 X_2_12
  <= 13
 mtz_2_13:
  + 1 U2 - 1 U13 + 14 X_2_13
  <= 13
 mtz_2_14:
  + 1 U2 - 1 U14 + 14 X_2_14
  <= 13
 mtz_3_1:
  + 1 U3 - 1 U1 + 14 X_3_1
  <= 13
 mtz_3_2:
  + 1 U3 - 1 U2 + 14 X_3_2
  <= 13
 mtz_3_4:
  + 1 U3 - 1 U4 + 14 X_3_4
  <= 13
 mtz_3_5:
  + 1 U3 - 1 U5 + 14 X_3_5
  <= 13
 mtz_3_6:
  + 1 U3 - 1 U6 + 14 X_3_6
  <= 13
 mtz_3_7:
  + 1 U3 - 1 U7 + 14 X_3_7
  <= 13
 mtz_3_8:
  + 1 U3 - 1 U8 + 14 X_3_8
  <= 13
 mtz_3_9:
  + 1 U3 - 1 U9 + 14 X_3_9
  <= 13
 mtz_3_10:
  + 1 U3 - 1 U10 + 14 X_3_10
  <= 13
 mtz_3_11:
  + 1 U3 - 1 U11 + 14 X_3_11
  <= 13
 mtz_3_12:
  + 1 U3 - 1 U12 + 14 X_3_12
  <= 13
 mtz_3_13:
  + 1 U3 - 1 U13 + 14 X_3_13
  <= 13
 mtz_3_14:
  + 1 U3 - 1 U14 + 14 X_3_14
  <= 13
 mtz_4_1:
  + 1 U4 - 1 U1 + 14 X_4_1
  <= 13
 mtz_4_2:
  + 1 U4 - 1 U2 + 14 X_4_2
  <= 13
 mtz_4_3:
  + 1 U4 - 1 U3 + 14 X_4_3
  <= 13
 mtz_4_5:
  + 1 U4 - 1 U5 + 14 X_4_5
  <= 13
 mtz_4_6:
  + 1 U4 - 1 U6 + 14 X_4_6
  <= 13
 mtz_4_7:
  + 1 U4 - 1 U7 + 14 X_4_7
  <= 13
 mtz_4_8:
  + 1 U4 - 1 U8 + 14 X_4_8
  <= 13
 mtz_4_9:
  + 1 U4 - 1 U9 + 14 X_4_9
  <= 13
 mtz_4_10:
  + 1 U4 - 1 U10 + 14 X_4_10
  <= 13
 mtz_4_11:
  + 1 U4 - 1 U11 + 14 X_4_11
  <= 13
 mtz_4_12:
  + 1 U4 - 1 U12 + 14 X_4_12
  <= 13
 mtz_4_13:
  + 1 U4 - 1 U13 + 14 X_4_13
  <= 13
 mtz_4_14:
  + 1 U4 - 1 U14 + 14 X_4_14
  <= 13
 mtz_5_1:
  + 1 U5 - 1 U1 + 14 X_5_1
  <= 13
 mtz_5_2:
  + 1 U5 - 1 U2 + 14 X_5_2
  <= 13
 mtz_5_3:
  + 1 U5 - 1 U3 + 14 X_5_3
  <= 13
 mtz_5_4:
  + 1 U5 - 1 U4 + 14 X_5_4
  <= 13
 mtz_5_6:
  + 1 U5 - 1 U6 + 14 X_5_6
  <= 13
 mtz_5_7:
  + 1 U5 - 1 U7 + 14 X_5_7
  <= 13
 mtz_5_8:
  + 1 U5 - 1 U8 + 14 X_5_8
  <= 13
 mtz_5_9:
  + 1 U5 - 1 U9 + 14 X_5_9
  <= 13
 mtz_5_10:
  + 1 U5 - 1 U10 + 14 X_5_10
  <= 13
 mtz_5_11:
  + 1 U5 - 1 U11 + 14 X_5_11
  <= 13
 mtz_5_12:
  + 1 U5 - 1 U12 + 14 X_5_12
  <= 13
 mtz_5_13:
  + 1 U5 - 1 U13 + 14 X_5_13
  <= 13
 mtz_5_14:
  + 1 U5 - 1 U14 + 14 X_5_14
  <= 13
 mtz_6_1:
  + 1 U6 - 1 U1 + 14 X_6_1
  <= 13
 mtz_6_2:
  + 1 U6 - 1 U2 + 14 X_6_2
  <= 13
 mtz_6_3:
  + 1 U6 - 1 U3 + 14 X_6_3
  <= 13
 mtz_6_4:
  + 1 U6 - 1 U4 + 14 X_6_4
  <= 13
 mtz_6_5:
  + 1 U6 - 1 U5 + 14 X_6_5
  <= 13
 mtz_6_7:
  + 1 U6 - 1 U7 + 14 X_6_7
  <= 13
 mtz_6_8:
  + 1 U6 - 1 U8 + 14 X_6_8
  <= 13
 mtz_6_9:
  + 1 U6 - 1 U9 + 14 X_6_9
  <= 13
 mtz_6_10:
  + 1 U6 - 1 U10 + 14 X_6_10
  <= 13
 mtz_6_11:
  + 1 U6 - 1 U11 + 14 X_6_11
  <= 13
 mtz_6_12:
  + 1 U6 - 1 U12 + 14 X_6_12
  <= 13
 mtz_6_13:
  + 1 U6 - 1 U13 + 14 X_6_13
  <= 13
 mtz_6_14:
  + 1 U6 - 1 U14 + 14 X_6_14
  <= 13
 mtz_7_1:
  + 1 U7 - 1 U1 + 14 X_7_1
  <= 13
 mtz_7_2:
  + 1 U7 - 1 U2 + 14 X_7_2
  <= 13
 mtz_7_3:
  + 1 U7 - 1 U3 + 14 X_7_3
  <= 13
 mtz_7_4:
  + 1 U7 - 1 U4 + 14 X_7_4
  <= 13
 mtz_7_5:
  + 1 U7 - 1 U5 + 14 X_7_5
  <= 13
 mtz_7_6:
  + 1 U7 - 1 U6 + 14 X_7_6
  <= 13
 mtz_7_8:
  + 1 U7 - 1 U8 + 14 X_7_8
  <= 13
 mtz_7_9:
  + 1 U7 - 1 U9 + 14 X_7_9
  <= 13
 mtz_7_10:
  + 1 U7 - 1 U10 + 14 X_7_10
  <= 13
 mtz_7_11:
  + 1 U7 - 1 U11 + 14 X_7_11
  <= 13
 mtz_7_12:
  + 1 U7 - 1 U12 + 14 X_7_12
  <= 13
 mtz_7_13:
  + 1 U7 - 1 U13 + 14 X_7_13
  <= 13
 mtz_7_14:
  + 1 U7 - 1 U14 + 14 X_7_14
  <= 13
 mtz_8_1:
  + 1 U8 - 1 U1 + 14 X_8_1
  <= 13
 mtz_8_2:
  + 1 U8 - 1 U2 + 14 X_8_2
  <= 13
 mtz_8_3:
  + 1 U8 - 1 U3 + 14 X_8_3
  <= 13
 mtz_8_4:
  + 1 U8 - 1 U4 + 14 X_8_4
  <= 13
 mtz_8_5:
  + 1 U8 - 1 U5 + 14 X_8_5
  <= 13
 mtz_8_6:
  + 1 U8 - 1 U6 + 14 X_8_6
  <= 13
 mtz_8_7:
  + 1 U8 - 1 U7 + 14 X_8_7
  <= 13
 mtz_8_9:
  + 1 U8 - 1 U9 + 14 X_8_9
  <= 13
 mtz_8_10:
  + 1 U8 - 1 U10 + 14 X_8_10
  <= 13
 mtz_8_11:
  + 1 U8 - 1 U11 + 14 X_8_11
  <= 13
 mtz_8_12:
  + 1 U8 - 1 U12 + 14 X_8_12
  <= 13
 mtz_8_13:
  + 1 U8 - 1 U13 + 14 X_8_13
  <= 13
 mtz_8_14:
  + 1 U8 - 1 U14 + 14 X_8_14
  <= 13
 mtz_9_1:
  + 1 U9 - 1 U1 + 14 X_9_1
  <= 13
 mtz_9_2:
  + 1 U9 - 1 U2 + 14 X_9_2
  <= 13
 mtz_9_3:
  + 1 U9 - 1 U3 + 14 X_9_3
  <= 13
 mtz_9_4:
  + 1 U9 - 1 U4 + 14 X_9_4
  <= 13
 mtz_9_5:
  + 1 U9 - 1 U5 + 14 X_9_5
  <= 13
 mtz_9_6:
  + 1 U9 - 1 U6 + 14 X_9_6
  <= 13
 mtz_9_7:
  + 1 U9 - 1 U7 + 14 X_9_7
  <= 13
 mtz_9_8:
  + 1 U9 - 1 U8 + 14 X_9_8
  <= 13
 mtz_9_10:
  + 1 U9 - 1 U10 + 14 X_9_10
  <= 13
 mtz_9_11:
  + 1 U9 - 1 U11 + 14 X_9_11
  <= 13
 mtz_9_12:
  + 1 U9 - 1 U12 + 14 X_9_12
  <= 13
 mtz_9_13:
  + 1 U9 - 1 U13 + 14 X_9_13
  <= 13
 mtz_9_14:
  + 1 U9 - 1 U14 + 14 X_9_14
  <= 13
 mtz_10_1:
  + 1 U10 - 1 U1 + 14 X_10_1
  <= 13
 mtz_10_2:
  + 1 U10 - 1 U2 + 14 X_10_2
  <= 13
 mtz_10_3:
  + 1 U10 - 1 U3 + 14 X_10_3
  <= 13
 mtz_10_4:
  + 1 U10 - 1 U4 + 14 X_10_4
  <= 13
 mtz_10_5:
  + 1 U10 - 1 U5 + 14 X_10_5
  <= 13
 mtz_10_6:
  + 1 U10 - 1 U6 + 14 X_10_6
  <= 13
 mtz_10_7:
  + 1 U10 - 1 U7 + 14 X_10_7
  <= 13
 mtz_10_8:
  + 1 U10 - 1 U8 + 14 X_10_8
  <= 13
 mtz_10_9:
  + 1 U10 - 1 U9 + 14 X_10_9
  <= 13
 mtz_10_11:
  + 1 U10 - 1 U11 + 14 X_10_11
  <= 13
 mtz_10_12:
  + 1 U10 - 1 U12 + 14 X_10_12
  <= 13
 mtz_10_13:
  + 1 U10 - 1 U13 + 14 X_10_13
  <= 13
 mtz_10_14:
  + 1 U10 - 1 U14 + 14 X_10_14
  <= 13
 mtz_11_1:
  + 1 U11 - 1 U1 + 14 X_11_1
  <= 13
 mtz_11_2:
  + 1 U11 - 1 U2 + 14 X_11_2
  <= 13
 mtz_11_3:
  + 1 U11 - 1 U3 + 14 X_11_3
  <= 13
 mtz_11_4:
  + 1 U11 - 1 U4 + 14 X_11_4
  <= 13
 mtz_11_5:
  + 1 U11 - 1 U5 + 14 X_11_5
  <= 13
 mtz_11_6:
  + 1 U11 - 1 U6 + 14 X_11_6
  <= 13
 mtz_11_7:
  + 1 U11 - 1 U7 + 14 X_11_7
  <= 13
 mtz_11_8:
  + 1 U11 - 1 U8 + 14 X_11_8
  <= 13
 mtz_11_9:
  + 1 U11 - 1 U9 + 14 X_11_9
  <= 13
 mtz_11_10:
  + 1 U11 - 1 U10 + 14 X_11_10
  <= 13
 mtz_11_12:
  + 1 U11 - 1 U12 + 14 X_11_12
  <= 13
 mtz_11_13:
  + 1 U11 - 1 U13 + 14 X_11_13
  <= 13
 mtz_11_14:
  + 1 U11 - 1 U14 + 14 X_11_14
  <= 13
 mtz_12_1:
  + 1 U12 - 1 U1 + 14 X_12_1
  <= 13
 mtz_12_2:
  + 1 U12 - 1 U2 + 14 X_12_2
  <= 13
 mtz_12_3:
  + 1 U12 - 1 U3 + 14 X_12_3
  <= 13
 mtz_12_4:
  + 1 U12 - 1 U4 + 14 X_12_4
  <= 13
 mtz_12_5:
  + 1 U12 - 1 U5 + 14 X_12_5
  <= 13
 mtz_12_6:
  + 1 U12 - 1 U6 + 14 X_12_6
  <= 13
 mtz_12_7:
  + 1 U12 - 1 U7 + 14 X_12_7
  <= 13
 mtz_12_8:
  + 1 U12 - 1 U8 + 14 X_12_8
  <= 13
 mtz_12_9:
  + 1 U12 - 1 U9 + 14 X_12_9
  <= 13
 mtz_12_10:
  + 1 U12 - 1 U10 + 14 X_12_10
  <= 13
 mtz_12_11:
  + 1 U12 - 1 U11 + 14 X_12_11
  <= 13
 mtz_12_13:
  + 1 U12 - 1 U13 + 14 X_12_13
  <= 13
 mtz_12_14:
  + 1 U12 - 1 U14 + 14 X_12_14
  <= 13
 mtz_13_1:
  + 1 U13 - 1 U1 + 14 X_13_1
  <= 13
 mtz_13_2:
  + 1 U13 - 1 U2 + 14 X_13_2
  <= 13
 mtz_13_3:
  + 1 U13 - 1 U3 + 14 X_13_3
  <= 13
 mtz_13_4:
  + 1 U13 - 1 U4 + 14 X_13_4
  <= 13
 mtz_13_5:
  + 1 U13 - 1 U5 + 14 X_13_5
  <= 13
 mtz_13_6:
  + 1 U13 - 1 U6 + 14 X_13_6
  <= 13
 mtz_13_7:
  + 1 U13 - 1 U7 + 14 X_13_7
  <= 13
 mtz_13_8:
  + 1 U13 - 1 U8 + 14 X_13_8
  <= 13
 mtz_13_9:
  + 1 U13 - 1 U9 + 14 X_13_9
  <= 13
 mtz_13_10:
  + 1 U13 - 1 U10 + 14 X_13_10
  <= 13
 mtz_13_11:
  + 1 U13 - 1 U11 + 14 X_13_11
  <= 13
 mtz_13_12:
  + 1 U13 - 1 U12 + 14 X_13_12
  <= 13
 mtz_13_14:
  + 1 U13 - 1 U14 + 14 X_13_14
  <= 13
 mtz_14_1:
  + 1 U14 - 1 U1 + 14 X_14_1
  <= 13
 mtz_14_2:
  + 1 U14 - 1 U2 + 14 X_14_2
  <= 13
 mtz_14_3:
  + 1 U14 - 1 U3 + 14 X_14_3
  <= 13
 mtz_14_4:
  + 1 U14 - 1 U4 + 14 X_14_4
  <= 13
 mtz_14_5:
  + 1 U14 - 1 U5 + 14 X_14_5
  <= 13
 mtz_14_6:
  + 1 U14 - 1 U6 + 14 X_14_6
  <= 13
 mtz_14_7:
  + 1 U14 - 1 U7 + 14 X_14_7
  <= 13
 mtz_14_8:
  + 1 U14 - 1 U8 + 14 X_14_8
  <= 13
 mtz_14_9:
  + 1 U14 - 1 U9 + 14 X_14_9
  <= 13
 mtz_14_10:
  + 1 U14 - 1 U10 + 14 X_14_10
  <= 13
 mtz_14_11:
  + 1 U14 - 1 U11 + 14 X_14_11
  <= 13
 mtz_14_12:
  + 1 U14 - 1 U12 + 14 X_14_12
  <= 13
 mtz_14_13:
  + 1 U14 - 1 U13 + 14 X_14_13
  <= 13
 obj1:
  + 893 X_0_1 + 568 X_0_2 + 619 X_0_3 + 168 X_0_4 + 134 X_0_5 + 687 X_0_6 + 701 X_0_7 + 251 X_0_8
  + 605 X_0_9 + 801 X_0_10 + 205 X_0_11 + 477 X_0_12 + 867 X_0_13 + 738 X_0_14 + 893 X_1_0 + 406 X_1_2
  + 448 X_1_3 + 884 X_1_4 + 847 X_1_5 + 657 X_1_6 + 213 X_1_7 + 993 X_1_8 + 501 X_1_9 + 95 X_1_10
  + 688 X_1_11 + 666 X_1_12 + 381 X_1_13 + 177 X_1_14 + 568 X_2_0 + 406 X_2_1 + 96 X_2_3 + 623 X_2_4
  + 572 X_2_5 + 317 X_2_6 + 318 X_2_7 + 607 X_2_8 + 135 X_2_9 + 315 X_2_10 + 380 X_2_11 + 579 X_2_12
  + 305 X_2_13 + 336 X_2_14 + 619 X_3_0 + 448 X_3_1 + 96 X_3_2 + 692 X_3_4 + 641 X_3_5 + 230 X_3_6
  + 397 X_3_7 + 621 X_3_8 + 53 X_3_9 + 364 X_3_10 + 446 X_3_11 + 673 X_3_12 + 250 X_3_13 + 409 X_3_14
  + 168 X_4_0 + 884 X_4_1 + 623 X_4_2 + 692 X_4_3 + 53 X_4_5 + 803 X_4_6 + 677 X_4_7 + 418 X_4_8
  + 691 X_4_9 + 799 X_4_10 + 246 X_4_11 + 352 X_4_12 + 929 X_4_13 + 715 X_4_14 + 134 X_5_0 + 847 X_5_1
  + 572 X_5_2 + 641 X_5_3 + 53 X_5_4 + 749 X_5_6 + 642 X_5_7 + 385 X_5_8 + 638 X_5_9 + 759 X_5_10
  + 194 X_5_11 + 352 X_5_12 + 878 X_5_13 + 680 X_5_14 + 687 X_6_0 + 657 X_6_1 + 317 X_6_2 + 230 X_6_3
  + 803 X_6_4 + 749 X_6_5 + 627 X_6_7 + 599 X_6_8 + 182 X_6_9 + 583 X_6_10 + 565 X_6_11 + 863 X_6_12
  + 345 X_6_13 + 639 X_6_14 + 701 X_7_0 + 213 X_7_1 + 318 X_7_2 + 397 X_7_3 + 677 X_7_4 + 642 X_7_5
  + 627 X_7_6 + 832 X_7_8 + 447 X_7_9 + 148 X_7_10 + 498 X_7_11 + 456 X_7_12 + 457 X_7_13 + 37 X_7_14
  + 251 X_8_0 + 993 X_8_1 + 607 X_8_2 + 621 X_8_3 + 418 X_8_4 + 385 X_8_5 + 599 X_8_6 + 832 X_8_7
  + 587 X_8_9 + 898 X_8_10 + 365 X_8_11 + 710 X_8_12 + 865 X_8_13 + 866 X_8_14 + 605 X_9_0 + 501 X_9_1
  + 135 X_9_2 + 53 X_9_3 + 691 X_9_4 + 638 X_9_5 + 182 X_9_6 + 447 X_9_7 + 587 X_9_8 + 418 X_9_10
  + 444 X_9_11 + 698 X_9_12 + 277 X_9_13 + 461 X_9_14 + 801 X_10_0 + 95 X_10_1 + 315 X_10_2 + 364 X_10_3
  + 799 X_10_4 + 759 X_10_5 + 583 X_10_6 + 148 X_10_7 + 898 X_10_8 + 418 X_10_9 + 596 X_10_11 + 603 X_10_12
  + 343 X_10_13 + 121 X_10_14 + 205 X_11_0 + 688 X_11_1 + 380 X_11_2 + 446 X_11_3 + 246 X_11_4 + 194 X_11_5
  + 565 X_11_6 + 498 X_11_7 + 365 X_11_8 + 444 X_11_9 + 596 X_11_10 + 371 X_11_12 + 685 X_11_13 + 535 X_11_14
  + 477 X_12_0 + 666 X_12_1 + 579 X_12_2 + 673 X_12_3 + 352 X_12_4 + 352 X_12_5 + 863 X_12_6 + 456 X_12_7
  + 710 X_12_8 + 698 X_12_9 + 603 X_12_10 + 371 X_12_11 + 850 X_12_13 + 489 X_12_14 + 867 X_13_0 + 381 X_13_1
  + 305 X_13_2 + 250 X_13_3 + 929 X_13_4 + 878 X_13_5 + 345 X_13_6 + 457 X_13_7 + 865 X_13_8 + 277 X_13_9
  + 343 X_13_10 + 685 X_13_11 + 850 X_13_12 + 447 X_13_14 + 738 X_14_0 + 177 X_14_1 + 336 X_14_2 + 409 X_14_3
  + 715 X_14_4 + 680 X_14_5 + 639 X_14_6 + 37 X_14_7 + 866 X_14_8 + 461 X_14_9 + 121 X_14_10 + 535 X_14_11
  + 489 X_14_12 + 447 X_14_13
  <= 1
 obj2:
  + 711 X_0_1 + 321 X_0_2 + 73 X_0_3 + 515 X_0_4 + 380 X_0_5 + 498 X_0_6 + 604 X_0_7 + 841 X_0_8
  + 460 X_0_9 + 767 X_0_10 + 915 X_0_11 + 684 X_0_12 + 678 X_0_13 + 656 X_0_14 + 711 X_1_0 + 394 X_1_2
  + 680 X_1_3 + 761 X_1_4 + 377 X_1_5 + 690 X_1_6 + 263 X_1_7 + 369 X_1_8 + 254 X_1_9 + 60 X_1_10
  + 259 X_1_11 + 56 X_1_12 + 531 X_1_13 + 388 X_1_14 + 321 X_2_0 + 394 X_2_1 + 286 X_2_3 + 492 X_2_4
  + 97 X_2_5 + 435 X_2_6 + 356 X_2_7 + 598 X_2_8 + 157 X_2_9 + 452 X_2_10 + 619 X_2_11 + 374 X_2_12
  + 466 X_2_13 + 391 X_2_14 + 73 X_3_0 + 680 X_3_1 + 286 X_3_2 + 443 X_3_4 + 329 X_3_5 + 425 X_3_6
  + 600 X_3_7 + 842 X_3_8 + 436 X_3_9 + 738 X_3_10 + 897 X_3_11 + 658 X_3_12 + 608 X_3_13 + 594 X_3_14
  + 515 X_4_0 + 761 X_4_1 + 492 X_4_2 + 443 X_4_3 + 428 X_4_5 + 72 X_4_6 + 834 X_4_7 + 1064 X_4_8
  + 620 X_4_9 + 819 X_4_10 + 1020 X_4_11 + 773 X_4_12 + 347 X_4_13 + 442 X_4_14 + 380 X_5_0 + 377 X_5_1
  + 97 X_5_2 + 329 X_5_3 + 428 X_5_4 + 365 X_5_6 + 405 X_5_7 + 638 X_5_8 + 192 X_5_9 + 438 X_5_10
  + 623 X_5_11 + 371 X_5_12 + 368 X_5_13 + 297 X_5_14 + 498 X_6_0 + 690 X_6_1 + 435 X_6_2 + 425 X_6_3
  + 72 X_6_4 + 365 X_6_5 + 770 X_6_7 + 998 X_6_8 + 557 X_6_9 + 748 X_6_10 + 949 X_6_11 + 703 X_6_12
  + 286 X_6_13 + 372 X_6_14 + 604 X_7_0 + 263 X_7_1 + 356 X_7_2 + 600 X_7_3 + 834 X_7_4 + 405 X_7_5
  + 770 X_7_6 + 244 X_7_8 + 213 X_7_9 + 280 X_7_10 + 335 X_7_11 + 207 X_7_12 + 701 X_7_13 + 572 X_7_14
  + 841 X_8_0 + 369 X_8_1 + 598 X_8_2 + 842 X_8_3 + 1064 X_8_4 + 638 X_8_5 + 998 X_8_6 + 244 X_8_7
  + 448 X_8_9 + 342 X_8_10 + 232 X_8_11 + 326 X_8_12 + 889 X_8_13 + 749 X_8_14 + 460 X_9_0 + 254 X_9_1
  + 157 X_9_2 + 436 X_9_3 + 620 X_9_4 + 192 X_9_5 + 557 X_9_6 + 213 X_9_7 + 448 X_9_8 + 308 X_9_10
  + 462 X_9_11 + 224 X_9_12 + 511 X_9_13 + 397 X_9_14 + 767 X_10_0 + 60 X_10_1 + 452 X_10_2 + 738 X_10_3
  + 819 X_10_4 + 438 X_10_5 + 748 X_10_6 + 280 X_10_7 + 342 X_10_8 + 308 X_10_9 + 203 X_10_11 + 87 X_10_12
  + 578 X_10_13 + 434 X_10_14 + 915 X_11_0 + 259 X_11_1 + 619 X_11_2 + 897 X_11_3 + 1020 X_11_4 + 623 X_11_5
  + 949 X_11_6 + 335 X_11_7 + 232 X_11_8 + 462 X_11_9 + 203 X_11_10 + 252 X_11_12 + 780 X_11_13 + 636 X_11_14
  + 684 X_12_0 + 56 X_12_1 + 374 X_12_2 + 658 X_12_3 + 773 X_12_4 + 371 X_12_5 + 703 X_12_6 + 207 X_12_7
  + 326 X_12_8 + 224 X_12_9 + 87 X_12_10 + 252 X_12_11 + 564 X_12_13 + 423 X_12_14 + 678 X_13_0 + 531 X_13_1
  + 466 X_13_2 + 608 X_13_3 + 347 X_13_4 + 368 X_13_5 + 286 X_13_6 + 701 X_13_7 + 889 X_13_8 + 511 X_13_9
  + 578 X_13_10 + 780 X_13_11 + 564 X_13_12 + 143 X_13_14 + 656 X_14_0 + 388 X_14_1 + 391 X_14_2 + 594 X_14_3
  + 442 X_14_4 + 297 X_14_5 + 372 X_14_6 + 572 X_14_7 + 749 X_14_8 + 397 X_14_9 + 434 X_14_10 + 636 X_14_11
  + 423 X_14_12 + 143 X_14_13
  <= 2
 obj3:
  + 564 X_0_1 + 752 X_0_2 + 108 X_0_3 + 822 X_0_4 + 814 X_0_5 + 748 X_0_6 + 533 X_0_7 + 518 X_0_8
  + 573 X_0_9 + 254 X_0_10 + 379 X_0_11 + 981 X_0_12 + 789 X_0_13 + 647 X_0_14 + 564 X_1_0 + 201 X_1_2
  + 662 X_1_3 + 570 X_1_4 + 315 X_1_5 + 346 X_1_6 + 298 X_1_7 + 173 X_1_8 + 741 X_1_9 + 311 X_1_10
  + 417 X_1_11 + 491 X_1_12 + 629 X_1_13 + 96 X_1_14 + 752 X_2_0 + 201 X_2_1 + 845 X_2_3 + 510 X_2_4
  + 148 X_2_5 + 419 X_2_6 + 464 X_2_7 + 264 X_2_8 + 818 X_2_9 + 497 X_2_10 + 530 X_2_11 + 308 X_2_12
  + 601 X_2_13 + 169 X_2_14 + 108 X_3_0 + 662 X_3_1 + 845 X_3_2 + 864 X_3_4 + 896 X_3_5 + 856 X_3_6
  + 641 X_3_7 + 601 X_3_8 + 549 X_3_9 + 351 X_3_10 + 422 X_3_11 + 1058 X_3_12 + 817 X_3_13 + 749 X_3_14
  + 822 X_4_0 + 570 X_4_1 + 510 X_4_2 + 864 X_4_3 + 390 X_4_5 + 902 X_4_6 + 859 X_4_7 + 423 X_4_8
  + 506 X_4_9 + 641 X_4_10 + 443 X_4_11 + 401 X_4_12 + 121 X_4_13 + 624 X_4_14 + 814 X_5_0 + 315 X_5_1
  + 148 X_5_2 + 896 X_5_3 + 390 X_5_4 + 567 X_5_6 + 602 X_5_7 + 296 X_5_8 + 773 X_5_9 + 565 X_5_10
  + 528 X_5_11 + 177 X_5_12 + 495 X_5_13 + 311 X_5_14 + 748 X_6_0 + 346 X_6_1 + 419 X_6_2 + 856 X_6_3
  + 902 X_6_4 + 567 X_6_5 + 222 X_6_7 + 518 X_6_8 + 1070 X_6_9 + 548 X_6_10 + 738 X_6_11 + 712 X_6_12
  + 971 X_6_13 + 278 X_6_14 + 533 X_7_0 + 298 X_7_1 + 464 X_7_2 + 641 X_7_3 + 859 X_7_4 + 602 X_7_5
  + 222 X_7_6 + 437 X_7_8 + 921 X_7_9 + 364 X_7_10 + 593 X_7_11 + 772 X_7_12 + 902 X_7_13 + 295 X_7_14
  + 518 X_8_0 + 173 X_8_1 + 264 X_8_2 + 601 X_8_3 + 423 X_8_4 + 296 X_8_5 + 518 X_8_6 + 437 X_8_7
  + 577 X_8_9 + 274 X_8_10 + 268 X_8_11 + 463 X_8_12 + 465 X_8_13 + 258 X_8_14 + 573 X_9_0 + 741 X_9_1
  + 818 X_9_2 + 549 X_9_3 + 506 X_9_4 + 773 X_9_5 + 1070 X_9_6 + 921 X_9_7 + 577 X_9_8 + 566 X_9_10
  + 331 X_9_11 + 864 X_9_12 + 401 X_9_13 + 833 X_9_14 + 254 X_10_0 + 311 X_10_1 + 497 X_10_2 + 351 X_10_3
  + 641 X_10_4 + 565 X_10_5 + 548 X_10_6 + 364 X_10_7 + 274 X_10_8 + 566 X_10_9 + 255 X_10_11 + 736 X_10_12
  + 641 X_10_13 + 399 X_10_14 + 379 X_11_0 + 417 X_11_1 + 530 X_11_2 + 422 X_11_3 + 443 X_11_4 + 528 X_11_5
  + 738 X_11_6 + 593 X_11_7 + 268 X_11_8 + 331 X_11_9 + 255 X_11_10 + 667 X_11_12 + 411 X_11_13 + 512 X_11_14
  + 981 X_12_0 + 491 X_12_1 + 308 X_12_2 + 1058 X_12_3 + 401 X_12_4 + 177 X_12_5 + 712 X_12_6 + 772 X_12_7
  + 463 X_12_8 + 864 X_12_9 + 736 X_12_10 + 667 X_12_11 + 522 X_12_13 + 477 X_12_14 + 789 X_13_0 + 629 X_13_1
  + 601 X_13_2 + 817 X_13_3 + 121 X_13_4 + 495 X_13_5 + 971 X_13_6 + 902 X_13_7 + 465 X_13_8 + 401 X_13_9
  + 641 X_13_10 + 411 X_13_11 + 522 X_13_12 + 694 X_13_14 + 647 X_14_0 + 96 X_14_1 + 169 X_14_2 + 749 X_14_3
  + 624 X_14_4 + 311 X_14_5 + 278 X_14_6 + 295 X_14_7 + 258 X_14_8 + 833 X_14_9 + 399 X_14_10 + 512 X_14_11
  + 477 X_14_12 + 694 X_14_13
  <= 3
 obj4:
  + 250 X_0_1 + 125 X_0_2 + 103 X_0_3 + 388 X_0_4 + 539 X_0_5 + 474 X_0_6 + 235 X_0_7 + 597 X_0_8
  + 374 X_0_9 + 881 X_0_10 + 739 X_0_11 + 419 X_0_12 + 651 X_0_13 + 443 X_0_14 + 250 X_1_0 + 349 X_1_2
  + 302 X_1_3 + 202 X_1_4 + 481 X_1_5 + 226 X_1_6 + 372 X_1_7 + 466 X_1_8 + 161 X_1_9 + 637 X_1_10
  + 547 X_1_11 + 170 X_1_12 + 508 X_1_13 + 198 X_1_14 + 125 X_2_0 + 349 X_2_1 + 51 X_2_3 + 442 X_2_4
  + 514 X_2_5 + 576 X_2_6 + 150 X_2_7 + 604 X_2_8 + 442 X_2_9 + 956 X_2_10 + 774 X_2_11 + 509 X_2_12
  + 662 X_2_13 + 547 X_2_14 + 103 X_3_0 + 302 X_3_1 + 51 X_3_2 + 390 X_3_4 + 476 X_3_5 + 528 X_3_6
  + 135 X_3_7 + 559 X_3_8 + 391 X_3_9 + 904 X_3_10 + 724 X_3_11 + 459 X_3_12 + 616 X_3_13 + 501 X_3_14
  + 388 X_4_0 + 202 X_4_1 + 442 X_4_2 + 390 X_4_3 + 319 X_4_5 + 259 X_4_6 + 390 X_4_7 + 268 X_4_8
  + 55 X_4_9 + 519 X_4_10 + 354 X_4_11 + 165 X_4_12 + 306 X_4_13 + 257 X_4_14 + 539 X_5_0 + 481 X_5_1
  + 514 X_5_2 + 476 X_5_3 + 319 X_5_4 + 576 X_5_6 + 379 X_5_7 + 165 X_5_8 + 373 X_5_9 + 692 X_5_10
  + 381 X_5_11 + 483 X_5_12 + 214 X_5_13 + 576 X_5_14 + 474 X_6_0 + 226 X_6_1 + 576 X_6_2 + 528 X_6_3
  + 259 X_6_4 + 576 X_6_5 + 584 X_6_7 + 492 X_6_8 + 208 X_6_9 + 449 X_6_10 + 475 X_6_11 + 94 X_6_12
  + 511 X_6_13 + 36 X_6_14 + 235 X_7_0 + 372 X_7_1 + 150 X_7_2 + 135 X_7_3 + 390 X_7_4 + 379 X_7_5
  + 584 X_7_6 + 492 X_7_8 + 409 X_7_9 + 907 X_7_10 + 682 X_7_11 + 501 X_7_12 + 551 X_7_13 + 562 X_7_14
  + 597 X_8_0 + 466 X_8_1 + 604 X_8_2 + 559 X_8_3 + 268 X_8_4 + 165 X_8_5 + 492 X_8_6 + 492 X_8_7
  + 320 X_8_9 + 532 X_8_10 + 217 X_8_11 + 410 X_8_12 + 59 X_8_13 + 503 X_8_14 + 374 X_9_0 + 161 X_9_1
  + 442 X_9_2 + 391 X_9_3 + 55 X_9_4 + 373 X_9_5 + 208 X_9_6 + 409 X_9_7 + 320 X_9_8 + 513 X_9_10
  + 386 X_9_11 + 113 X_9_12 + 355 X_9_13 + 204 X_9_14 + 881 X_10_0 + 637 X_10_1 + 956 X_10_2 + 904 X_10_3
  + 519 X_10_4 + 692 X_10_5 + 449 X_10_6 + 907 X_10_7 + 532 X_10_8 + 513 X_10_9 + 338 X_10_11 + 468 X_10_12
  + 499 X_10_13 + 485 X_10_14 + 739 X_11_0 + 547 X_11_1 + 774 X_11_2 + 724 X_11_3 + 354 X_11_4 + 381 X_11_5
  + 475 X_11_6 + 682 X_11_7 + 217 X_11_8 + 386 X_11_9 + 338 X_11_10 + 424 X_11_12 + 170 X_11_13 + 499 X_11_14
  + 419 X_12_0 + 170 X_12_1 + 509 X_12_2 + 459 X_12_3 + 165 X_12_4 + 483 X_12_5 + 94 X_12_6 + 501 X_12_7
  + 410 X_12_8 + 113 X_12_9 + 468 X_12_10 + 424 X_12_11 + 435 X_12_13 + 93 X_12_14 + 651 X_13_0 + 508 X_13_1
  + 662 X_13_2 + 616 X_13_3 + 306 X_13_4 + 214 X_13_5 + 511 X_13_6 + 551 X_13_7 + 59 X_13_8 + 355 X_13_9
  + 499 X_13_10 + 170 X_13_11 + 435 X_13_12 + 525 X_13_14 + 443 X_14_0 + 198 X_14_1 + 547 X_14_2 + 501 X_14_3
  + 257 X_14_4 + 576 X_14_5 + 36 X_14_6 + 562 X_14_7 + 503 X_14_8 + 204 X_14_9 + 485 X_14_10 + 499 X_14_11
  + 93 X_14_12 + 525 X_14_13
  <= 4
Bounds
 1 <= U1 <= 14
 1 <= U2 <= 14
 1 <= U3 <= 14
 1 <= U4 <= 14
 1 <= U5 <= 14
 1 <= U6 <= 14
 1 <= U7 <= 14
 1 <= U8 <= 14
 1 <= U9 <= 14
 1 <= U10 <= 14
 1 <= U11 <= 14
 1 <= U12 <= 14
 1 <= U13 <= 14
 1 <= U14 <= 14
Binary
 X_0_1
 X_0_2
 X_0_3
 X_0_4
 X_0_5
 X_0_6
 X_0_7
 X_0_8
 X_0_9
 X_0_10
 X_0_11
 X_0_12
 X_0_13
 X_0_14
 X_1_0
 X_1_2
 X_1_3
 X_1_4
 X_1_5
 X_1_6
 X_1_7
 X_1_8
 X_1_9
 X_1_10
 X_1_11
 X_1_12
 X_1_13
 X_1_14
 X_2_0
 X_2_1
 X_2_3
 X_2_4
 X_2_5
 X_2_6
 X_2_7
 X_2_8
 X_2_9
 X_2_10
 X_2_11
 X_2_12
 X_2_13
 X_2_14
 X_3_0
 X_3_1
 X_3_2
 X_3_4
 X_3_5
 X_3_6
 X_3_7
 X_3_8
 X_3_9
 X_3_10
 X_3_11
 X_3_12
 X_3_13
 X_3_14
 X_4_0
 X_4_1
 X_4_2
 X_4_3
 X_4_5
 X_4_6
 X_4_7
 X_4_8
 X_4_9
 X_4_10
 X_4_11
 X_4_12
 X_4_13
 X_4_14
 X_5_0
 X_5_1
 X_5_2
 X_5_3
 X_5_4
 X_5_6
 X_5_7
 X_5_8
 X_5_9
 X_5_10
 X_5_11
 X_5_12
 X_5_13
 X_5_14
 X_6_0
 X_6_1
 X_6_2
 X_6_3
 X_6_4
 X_6_5
 X_6_7
 X_6_8
 X_6_9
 X_6_10
 X_6_11
 X_6_12
 X_6_13
 X_6_14
 X_7_0
 X_7_1
 X_7_2
 X_7_3
 X_7_4
 X_7_5
 X_7_6
 X_7_8
 X_7_9
 X_7_10
 X_7_11
 X_7_12
 X_7_13
 X_7_14
 X_8_0
 X_8_1
 X_8_2
 X_8_3
 X_8_4
 X_8_5
 X_8_6
 X_8_7
 X_8_9
 X_8_10
 X_8_11
 X_8_12
 X_8_13
 X_8_14
 X_9_0
 X_9_1
 X_9_2
 X_9_3
 X_9_4
 X_9_5
 X_9_6
 X_9_7
 X_9_8
 X_9_10
 X_9_11
 X_9_12
 X_9_13
 X_9_14
 X_10_0
 X_10_1
 X_10_2
 X_10_3
 X_10_4
 X_10_5
 X_10_6
 X_10_7
 X_10_8
 X_10_9
 X_10_11
 X_10_12
 X_10_13
 X_10_14
 X_11_0
 X_11_1
 X_11_2
 X_11_3
 X_11_4
 X_11_5
 X_11_6
 X_11_7
 X_11_8
 X_11_9
 X_11_10
 X_11_12
 X_11_13
 X_11_14
 X_12_0
 X_12_1
 X_12_2
 X_12_3
 X_12_4
 X_12_5
 X_12_6
 X_12_7
 X_12_8
 X_12_9
 X_12_10
 X_12_11
 X_12_13
 X_12_14
 X_13_0
 X_13_1
 X_13_2
 X_13_3
 X_13_4
 X_13_5
 X_13_6
 X_13_7
 X_13_8
 X_13_9
 X_13_10
 X_13_11
 X_13_12
 X_13_14
 X_14_0
 X_14_1
 X_14_2
 X_14_3
 X_14_4
 X_14_5
 X_14_6
 X_14_7
 X_14_8
 X_14_9
 X_14_10
 X_14_11
 X_14_12
 X_14_13
End
